language Essence 1.3

letting blksize_delta be
        function(1 --> 9, 2 --> 9, 3 --> 9, 4 --> 9, 5 --> 9, 6 --> 9, 7 --> 9, 8 --> 9, 9 --> 9, 10 --> 9, 11 --> 9,
                 12 --> 9, 13 --> 9, 14 --> 9, 15 --> 9, 16 --> 9, 17 --> 10, 18 --> 9, 19 --> 9, 20 --> 9, 21 --> 9,
                 22 --> 10, 23 --> 9)
letting maxcars be
        function(1 --> 8, 2 --> 8, 3 --> 8, 4 --> 8, 5 --> 8, 6 --> 8, 7 --> 8, 8 --> 8, 9 --> 8, 10 --> 10, 11 --> 8,
                 12 --> 8, 13 --> 8, 14 --> 8, 15 --> 8, 16 --> 8, 17 --> 8, 18 --> 8, 19 --> 8, 20 --> 8, 21 --> 8,
                 22 --> 8, 23 --> 8)
letting n_cars be 218
letting n_classes be 25
letting n_options be 23
letting quantity be
        function(1 --> 8, 2 --> 8, 3 --> 8, 4 --> 8, 5 --> 8, 6 --> 8, 7 --> 8, 8 --> 18, 9 --> 8, 10 --> 8, 11 --> 8,
                 12 --> 8, 13 --> 8, 14 --> 8, 15 --> 8, 16 --> 8, 17 --> 8, 18 --> 15, 19 --> 8, 20 --> 8, 21 --> 8,
                 22 --> 8, 23 --> 9, 24 --> 8, 25 --> 8)
letting usage be
        relation((1, 8), (2, 23), (3, 10), (3, 11), (4, 5), (5, 10), (6, 2), (6, 10), (6, 11), (7, 3), (7, 12), (7, 17),
                 (7, 20), (7, 22), (7, 23), (8, 17), (8, 18), (8, 21), (9, 4), (9, 10), (10, 2), (10, 10), (10, 19),
                 (11, 2), (11, 4), (11, 22), (12, 9), (13, 11), (13, 17), (13, 18), (13, 21), (14, 7), (15, 1), (15, 9),
                 (15, 17), (16, 5), (16, 6), (16, 22), (17, 2), (17, 20), (18, 7), (18, 16), (19, 2), (20, 14),
                 (20, 18), (21, 2), (21, 10), (21, 22), (22, 14), (23, 2), (23, 12), (23, 13), (23, 17), (23, 20),
                 (24, 10), (24, 19), (24, 20), (24, 22), (25, 15), (25, 17))
$ Visualisation for usage
$  1  8
$  2 23
$  3 10
$  3 11
$  4  5
$  5 10
$  6  2
$  6 10
$  6 11
$  7  3
$  7 12
$  7 17
$  7 20
$  7 22
$  7 23
$  8 17
$  8 18
$  8 21
$  9  4
$  9 10
$ 10  2
$ 10 10
$ 10 19
$ 11  2
$ 11  4
$ 11 22
$ 12  9
$ 13 11
$ 13 17
$ 13 18
$ 13 21
$ 14  7
$ 15  1
$ 15  9
$ 15 17
$ 16  5
$ 16  6
$ 16 22
$ 17  2
$ 17 20
$ 18  7
$ 18 16
$ 19  2
$ 20 14
$ 20 18
$ 21  2
$ 21 10
$ 21 22
$ 22 14
$ 23  2
$ 23 12
$ 23 13
$ 23 17
$ 23 20
$ 24 10
$ 24 19
$ 24 20
$ 24 22
$ 25 15
$ 25 17

